#######################
Slurm job id: 17497813_167
Running on machine: p71
Running cmd: /nfs/shared/static-builds/gurobi1003 SOFTMEMLIMIT=125 MIPFocus=3 Presolve=2 TimeLimit=300 seed=6 /nfs/models/miplib2010/k16x240.mps.bz2
#######################
Set parameter TimeLimit to value 300
Set parameter SoftMemLimit to value 125
Set parameter MIPFocus to value 3
Set parameter LogFile to value 1003-MIPFocus3-Presolve2-TimeLimit300-k16x240-6.log
Set parameter Presolve to value 2
Set parameter Seed to value 6
Using license file /opt/gurobi/gurobi.lic

Gurobi Optimizer version 10.0.3 build v10.0.3rc0 (linux64)
Copyright (c) 2023, Gurobi Optimization, LLC

Read MPS format model from file /nfs/models/miplib2010/k16x240.mps.bz2
Reading time = 0.00 seconds
k16x240: 256 rows, 480 columns, 960 nonzeros

CPU model: Intel(R) Xeon(R) E-2388G CPU @ 3.20GHz, instruction set [SSE2|AVX|AVX2|AVX512]
Thread count: 8 physical cores, 16 logical processors, using up to 16 threads

Optimize a model with 256 rows, 480 columns and 960 nonzeros
Model fingerprint: 0x4e80885f
Variable types: 240 continuous, 240 integer (240 binary)
Coefficient statistics:
  Matrix range     [1e+00, 1e+03]
  Objective range  [1e+00, 1e+03]
  Bounds range     [1e+00, 1e+03]
  RHS range        [4e+00, 4e+02]
Found heuristic solution: objective 19315.000000
Presolve time: 0.00s
Presolved: 256 rows, 480 columns, 960 nonzeros
Variable types: 240 continuous, 240 integer (240 binary)
Root relaxation presolve removed 241 rows and 240 columns
Root relaxation presolved: 15 rows, 240 columns, 450 nonzeros


Root relaxation: objective 2.769838e+03, 16 iterations, 0.00 seconds (0.00 work units)

    Nodes    |    Current Node    |     Objective Bounds      |     Work
 Expl Unexpl |  Obj  Depth IntInf | Incumbent    BestBd   Gap | It/Node Time

     0     0 2769.83800    0   14 19315.0000 2769.83800  85.7%     -    0s
H    0     0                    11359.000000 2769.83800  75.6%     -    0s
H    0     0                    11167.000000 8116.87580  27.3%     -    0s
H    0     0                    11077.000000 8116.87580  26.7%     -    0s
     0     0 8116.87580    0   26 11077.0000 8116.87580  26.7%     -    0s
H    0     0                    10909.000000 8116.87580  25.6%     -    0s
H    0     0                    10845.000000 8116.87580  25.2%     -    0s
     0     0 8763.60045    0   24 10845.0000 8763.60045  19.2%     -    0s
H    0     0                    10789.000000 8773.38876  18.7%     -    0s
     0     0 8876.13506    0   34 10789.0000 8876.13506  17.7%     -    0s
     0     0 8877.32449    0   32 10789.0000 8877.32449  17.7%     -    0s
     0     0 8891.08762    0   37 10789.0000 8891.08762  17.6%     -    0s
     0     0 8894.46348    0   38 10789.0000 8894.46348  17.6%     -    0s
H    0     0                    10750.000000 8894.46348  17.3%     -    0s
     0     0 9049.70026    0   38 10750.0000 9049.70026  15.8%     -    0s
     0     0 9052.46853    0   31 10750.0000 9052.46853  15.8%     -    0s
     0     0 9081.25174    0   27 10750.0000 9081.25174  15.5%     -    0s
     0     0 9182.36644    0   39 10750.0000 9182.36644  14.6%     -    0s
     0     0 9182.36644    0   39 10750.0000 9182.36644  14.6%     -    0s
     0     2 9182.36644    0   39 10750.0000 9182.36644  14.6%     -    0s
H   31    40                    10683.000000 9240.59949  13.5%  72.1    0s
H   32    40                    10681.000000 9243.49527  13.5%  70.4    0s
H   68    80                    10674.000000 9284.06800  13.0%  58.4    0s
  3852  2945     cutoff   34      10674.0000 10172.9268  4.69%  85.7    5s
 16241 10417 10440.9159   30   18 10674.0000 10405.3856  2.52%  72.2   10s
 38159 16417 10553.7585   28   29 10674.0000 10539.3711  1.26%  56.1   15s

Cutting planes:
  Lift-and-project: 6
  Implied bound: 5
  MIR: 162
  Flow cover: 474
  Flow path: 40
  Zero half: 35
  Network: 19
  Relax-and-lift: 1

Explored 76018 nodes (2908240 simplex iterations) in 19.77 seconds (34.36 work units)
Thread count was 16 (of 16 available processors)

Solution count 10: 10674 10681 10683 ... 11359

Optimal solution found (tolerance 1.00e-04)
Best objective 1.067400000000e+04, best bound 1.067298553409e+04, gap 0.0095%
